sat
(model
; cardinality of BoundSet is 2
(declare-sort BoundSet 0)
; rep: @uc_BoundSet_0
; rep: @uc_BoundSet_1
(declare-sort UnboundSet 0)
(define-fun IsTeacher ((BOUND_VARIABLE_335 BoundSet)) Bool false)
(define-fun IsBestClass ((BOUND_VARIABLE_335 BoundSet)) Bool false)
(define-fun IsBest ((BOUND_VARIABLE_335 BoundSet)) Bool true)
(define-fun IsClass ((BOUND_VARIABLE_335 BoundSet)) Bool false)
)
